c description: Random 3-CNF over 19 variables and 81 clauses
c generator: CNFgen (0.9.2)
c copyright: (C) 2012-2022 Massimo Lauria <massimo.lauria@uniroma1.it>
c url: https://massimolauria.net/cnfgen
c command line: cnfgen --output CNF_4.28/19_bit_81_391.cnf randkcnf 3 19 81
c
p cnf 19 81
-3 15 -19 0
10 -12 -14 0
-3 10 14 0
-5 10 -14 0
1 -3 16 0
4 -5 -12 0
3 7 -9 0
2 -16 19 0
-2 11 18 0
-8 10 -16 0
-6 -16 -18 0
-3 -8 -10 0
7 10 -16 0
-6 -17 -18 0
1 -11 14 0
-3 4 -11 0
-2 -11 19 0
8 -14 18 0
8 11 15 0
-6 9 12 0
-4 -6 9 0
6 14 17 0
-1 13 -17 0
1 10 12 0
-1 -9 -15 0
8 -9 -10 0
-1 -8 15 0
5 -11 16 0
-1 6 -17 0
-1 -13 14 0
11 14 16 0
4 -10 18 0
1 -15 -18 0
14 16 -19 0
3 -6 13 0
-5 8 10 0
9 10 14 0
8 -9 17 0
-4 -16 -17 0
8 12 -13 0
-3 -7 -14 0
1 2 -3 0
-8 13 14 0
-4 -7 -16 0
4 -7 9 0
-2 -3 -8 0
8 -16 -18 0
-1 -8 17 0
9 10 -14 0
16 17 19 0
-6 8 12 0
-5 -12 15 0
4 14 19 0
-7 -12 19 0
-5 -14 -16 0
6 -9 15 0
1 -14 18 0
5 6 18 0
4 7 16 0
11 14 -19 0
15 16 -18 0
1 -4 15 0
1 13 14 0
-1 5 8 0
-5 11 14 0
7 -11 -13 0
5 -7 -10 0
3 -6 -14 0
-6 -10 19 0
-7 -14 15 0
-2 -4 -8 0
4 -7 11 0
-5 17 19 0
15 -16 19 0
4 5 -17 0
-8 12 -13 0
12 13 -16 0
-3 -12 -17 0
8 -15 17 0
1 7 10 0
-2 -7 -11 0
